data/solutions/recovery/degenerate/moderate/flexible/degenerate_moderate_instance36/65.sol
Elapsed time: 23.7
Upper bound: 1410072905.0
Planning weighted value: 37950319341.0
C[0]=1410072905.0
C[1]=1410020461.0
C[2]=1410013135.0
C[3]=1409896513.0
C[4]=0.0
y[0]=3
y[1]=1
y[2]=1
y[3]=3
y[4]=0
y[5]=1
y[6]=2
y[7]=3
y[8]=2
y[9]=1
y[10]=1
y[11]=0
y[12]=3
y[13]=2
y[14]=0
y[15]=0
y[16]=1
y[17]=0
y[18]=0
y[19]=3
y[20]=3
y[21]=3
y[22]=2
y[23]=2
y[24]=0
y[25]=3
y[26]=1
y[27]=2
y[28]=1
y[29]=1
y[30]=2
y[31]=3
y[32]=0
y[33]=3
y[34]=2
y[35]=2
y[36]=1
y[37]=3
y[38]=3
y[39]=0
y[40]=1
y[41]=2
y[42]=2
y[43]=0
y[44]=1
y[45]=0
