data/solutions/recovery/degenerate/moderate/flexible/degenerate_moderate_instance36/65.log

Log started (V12.6.3.0) Sat Apr 21 11:42:43 2018

New value for default parallel thread count: 1

Problem '/tmp/tmpipuqyj.pyomo.lp' read.
Read time = 0.00 sec. (0.11 ticks)

Problem name         : /tmp/tmpipuqyj.pyomo.lp
Objective sense      : Minimize
Variables            :     237  [Nneg: 1,  Binary: 230,  General Integer: 6]
Objective nonzeros   :       1
Linear constraints   :     104  [Less: 51,  Equal: 53]
  Nonzeros           :    7146
  RHS nonzeros       :      93

Variables            : Min LB: 0.000000         Max UB: 1.000000       
Objective nonzeros   : Min   : 1.000000         Max   : 1.000000       
Linear constraints   :
  Nonzeros           : Min   : 1.000000         Max   : 2.657465e+08   
  RHS nonzeros       : Min   : 1.000000         Max   : 5.000000       
Tried aggregator 1 time.
MIP Presolve eliminated 49 rows and 48 columns.
Reduced MIP has 55 rows, 189 columns, and 488 nonzeros.
Reduced MIP has 184 binaries, 5 generals, 0 SOSs, and 0 indicators.
Presolve time = 0.00 sec. (1.32 ticks)
Found incumbent of value 2.8310549e+09 after 0.00 sec. (1.56 ticks)
Probing time = 0.00 sec. (0.37 ticks)
Tried aggregator 1 time.
Reduced MIP has 55 rows, 189 columns, and 488 nonzeros.
Reduced MIP has 184 binaries, 5 generals, 0 SOSs, and 0 indicators.
Presolve time = 0.00 sec. (0.31 ticks)
Probing time = 0.00 sec. (0.37 ticks)
Clique table members: 46.
MIP emphasis: balance optimality and feasibility.
MIP search method: dynamic search.
Parallel mode: none, using 1 thread.
Root relaxation solution time = 0.00 sec. (0.56 ticks)

        Nodes                                         Cuts/
   Node  Left     Objective  IInf  Best Integer    Best Bound    ItCnt     Gap

*     0+    0                       2.83105e+09        0.0000           100.00%
      0     0   1.41000e+09    13   2.83105e+09   1.41000e+09      102   50.20%
*     0+    0                       1.48005e+09   1.41000e+09             4.73%
*     0+    0                       1.44104e+09   1.41000e+09             2.15%
      0     2   1.41000e+09    13   1.44104e+09   1.41000e+09      102    2.15%
Elapsed time = 0.01 sec. (7.00 ticks, tree = 0.01 MB, solutions = 3)
*    50+   42                       1.43805e+09   1.41000e+09             1.95%
*    70+   62                       1.43747e+09   1.41000e+09             1.91%
*    80+   72                       1.43251e+09   1.41000e+09             1.57%
*    80+   67                       1.42862e+09   1.41000e+09             1.30%
*   180+  132                       1.42577e+09   1.41000e+09             1.11%
*   200+  131                       1.41443e+09   1.41000e+09             0.31%
*   333   192      integral     0   1.41424e+09   1.41000e+09     1010    0.30%
*   338   190      integral     0   1.41290e+09   1.41000e+09     1021    0.21%
*   979+  344                       1.41213e+09   1.41000e+09             0.15%
*  1179+  198                       1.41143e+09   1.41000e+09             0.10%
   1279   156   1.41000e+09     8   1.41143e+09   1.41000e+09     3759    0.10%
   1280   156   1.41000e+09     8   1.41143e+09   1.41000e+09     3760    0.10%
   1281   156   1.41000e+09     6   1.41143e+09   1.41000e+09     3761    0.10%
   1282   156   1.41000e+09     6   1.41143e+09   1.41000e+09     3762    0.10%
   1283   156   1.41000e+09     6   1.41143e+09   1.41000e+09     3763    0.10%
   1284   157   1.41000e+09     6   1.41143e+09   1.41000e+09     3764    0.10%
   1285   156   1.41000e+09     6   1.41143e+09   1.41000e+09     3765    0.10%
   1286   157   1.41000e+09     6   1.41143e+09   1.41000e+09     3766    0.10%
   1287   157   1.41000e+09     6   1.41143e+09   1.41000e+09     3768    0.10%
*  2279+  514                       1.41091e+09   1.41000e+09             0.06%
*  2379+  565                       1.41048e+09   1.41000e+09             0.03%
   5316  2073   1.41000e+09     6   1.41048e+09   1.41000e+09    12749    0.03%
Elapsed time = 1.16 sec. (960.68 ticks, tree = 0.73 MB, solutions = 15)
  11487  3730   1.41000e+09     6   1.41048e+09   1.41000e+09    31818    0.03%
  11488  3731   1.41000e+09     6   1.41048e+09   1.41000e+09    31819    0.03%
  11489  3732   1.41000e+09     6   1.41048e+09   1.41000e+09    31820    0.03%
  11490  3733   1.41000e+09     6   1.41048e+09   1.41000e+09    31821    0.03%
  11491  3734   1.41000e+09     6   1.41048e+09   1.41000e+09    31822    0.03%
  11492  3735   1.41000e+09     6   1.41048e+09   1.41000e+09    31823    0.03%
  11493  3736   1.41000e+09     6   1.41048e+09   1.41000e+09    31824    0.03%
  11494  3737   1.41000e+09     6   1.41048e+09   1.41000e+09    31825    0.03%
  11495  3738   1.41000e+09     6   1.41048e+09   1.41000e+09    31826    0.03%
  11496  3739   1.41000e+09     6   1.41048e+09   1.41000e+09    31827    0.03%
Elapsed time = 2.33 sec. (1914.79 ticks, tree = 1.24 MB, solutions = 15)
  19442  5486    infeasible         1.41048e+09   1.41000e+09    59089    0.03%
  19443  5485    infeasible         1.41048e+09   1.41000e+09    59091    0.03%
  19444  5484        cutoff         1.41048e+09   1.41000e+09    59100    0.03%
  19445  5483    infeasible         1.41048e+09   1.41000e+09    59121    0.03%
  19446  5482        cutoff         1.41048e+09   1.41000e+09    59127    0.03%
  19447  5481        cutoff         1.41048e+09   1.41000e+09    59130    0.03%
  19448  5480        cutoff         1.41048e+09   1.41000e+09    59134    0.03%
  19449  5479    infeasible         1.41048e+09   1.41000e+09    59134    0.03%
  19450  5478    infeasible         1.41048e+09   1.41000e+09    59138    0.03%
  19451  5477        cutoff         1.41048e+09   1.41000e+09    59140    0.03%
Elapsed time = 3.45 sec. (2870.89 ticks, tree = 1.89 MB, solutions = 15)
  28255  7152   1.41000e+09     8   1.41048e+09   1.41000e+09    88718    0.03%
  28256  7153   1.41000e+09     6   1.41048e+09   1.41000e+09    88719    0.03%
  28257  7154   1.41000e+09     7   1.41048e+09   1.41000e+09    88721    0.03%
  28258  7155   1.41000e+09     5   1.41048e+09   1.41000e+09    88722    0.03%
  28259  7156   1.41000e+09     8   1.41048e+09   1.41000e+09    88724    0.03%
  28260  7155   1.41037e+09    11   1.41048e+09   1.41000e+09    88727    0.03%
  28261  7154    infeasible         1.41048e+09   1.41000e+09    88732    0.03%
  28262  7153    infeasible         1.41048e+09   1.41000e+09    88736    0.03%
  28263  7152        cutoff         1.41048e+09   1.41000e+09    88739    0.03%
  28264  7151        cutoff         1.41048e+09   1.41000e+09    88750    0.03%
Elapsed time = 4.57 sec. (3825.54 ticks, tree = 2.43 MB, solutions = 15)
  37160  7869    infeasible         1.41048e+09   1.41000e+09   119821    0.03%
  37161  7868    infeasible         1.41048e+09   1.41000e+09   119830    0.03%
  37162  7867    infeasible         1.41048e+09   1.41000e+09   119838    0.03%
  37163  7868   1.41000e+09     6   1.41048e+09   1.41000e+09   119842    0.03%
  37164  7869   1.41000e+09     6   1.41048e+09   1.41000e+09   119843    0.03%
  37165  7870   1.41000e+09     6   1.41048e+09   1.41000e+09   119844    0.03%
  37166  7871   1.41000e+09     6   1.41048e+09   1.41000e+09   119845    0.03%
  37167  7872   1.41000e+09     6   1.41048e+09   1.41000e+09   119847    0.03%
  37168  7873   1.41000e+09     6   1.41048e+09   1.41000e+09   119848    0.03%
  37169  7874   1.41000e+09     6   1.41048e+09   1.41000e+09   119849    0.03%
Elapsed time = 5.72 sec. (4780.47 ticks, tree = 2.68 MB, solutions = 15)
  45768  9928        cutoff         1.41048e+09   1.41000e+09   147786    0.03%
  45769  9927        cutoff         1.41048e+09   1.41000e+09   147803    0.03%
  45770  9928   1.41000e+09     7   1.41048e+09   1.41000e+09   147807    0.03%
  45771  9929   1.41000e+09     8   1.41048e+09   1.41000e+09   147810    0.03%
  45772  9930   1.41000e+09     6   1.41048e+09   1.41000e+09   147813    0.03%
  45773  9931   1.41000e+09     6   1.41048e+09   1.41000e+09   147814    0.03%
  45774  9932   1.41000e+09     8   1.41048e+09   1.41000e+09   147817    0.03%
  45775  9931        cutoff         1.41048e+09   1.41000e+09   147822    0.03%
  45776  9930    infeasible         1.41048e+09   1.41000e+09   147827    0.03%
  45777  9929        cutoff         1.41048e+09   1.41000e+09   147836    0.03%
Elapsed time = 6.83 sec. (5736.16 ticks, tree = 3.59 MB, solutions = 15)
  54112 11427   1.41000e+09     6   1.41048e+09   1.41000e+09   176616    0.03%
  54113 11428   1.41000e+09     6   1.41048e+09   1.41000e+09   176617    0.03%
  54114 11429   1.41000e+09     8   1.41048e+09   1.41000e+09   176620    0.03%
  54115 11430   1.41000e+09     8   1.41048e+09   1.41000e+09   176621    0.03%
  54116 11429        cutoff         1.41048e+09   1.41000e+09   176627    0.03%
  54117 11428    infeasible         1.41048e+09   1.41000e+09   176630    0.03%
  54118 11427    infeasible         1.41048e+09   1.41000e+09   176635    0.03%
  54119 11428   1.41000e+09     6   1.41048e+09   1.41000e+09   176636    0.03%
  54120 11427        cutoff         1.41048e+09   1.41000e+09   176643    0.03%
  54121 11426    infeasible         1.41048e+09   1.41000e+09   176646    0.03%
Elapsed time = 7.97 sec. (6690.80 ticks, tree = 4.07 MB, solutions = 15)
  62637 12125    infeasible         1.41048e+09   1.41000e+09   204190    0.03%
  62638 12124        cutoff         1.41048e+09   1.41000e+09   204208    0.03%
  62639 12123    infeasible         1.41048e+09   1.41000e+09   204208    0.03%
  62640 12122    infeasible         1.41048e+09   1.41000e+09   204211    0.03%
  62641 12121    infeasible         1.41048e+09   1.41000e+09   204211    0.03%
  62642 12120    infeasible         1.41048e+09   1.41000e+09   204211    0.03%
  62643 12119    infeasible         1.41048e+09   1.41000e+09   204211    0.03%
  62644 12118        cutoff         1.41048e+09   1.41000e+09   204220    0.03%
  62645 12117    infeasible         1.41048e+09   1.41000e+09   204220    0.03%
  62646 12116    infeasible         1.41048e+09   1.41000e+09   204220    0.03%
Elapsed time = 9.23 sec. (7645.38 ticks, tree = 4.30 MB, solutions = 15)
  70401 12732        cutoff         1.41048e+09   1.41000e+09   231001    0.03%
  70402 12731    infeasible         1.41048e+09   1.41000e+09   231001    0.03%
  70403 12730    infeasible         1.41048e+09   1.41000e+09   231001    0.03%
  70404 12729        cutoff         1.41048e+09   1.41000e+09   231022    0.03%
  70405 12728    infeasible         1.41048e+09   1.41000e+09   231024    0.03%
  70406 12727    infeasible         1.41048e+09   1.41000e+09   231028    0.03%
  70407 12726        cutoff         1.41048e+09   1.41000e+09   231031    0.03%
  70408 12725        cutoff         1.41048e+09   1.41000e+09   231039    0.03%
  70409 12724        cutoff         1.41048e+09   1.41000e+09   231047    0.03%
  70410 12723        cutoff         1.41048e+09   1.41000e+09   231062    0.03%
Elapsed time = 10.37 sec. (8600.67 ticks, tree = 4.50 MB, solutions = 15)
  79370 13524   1.41000e+09     5   1.41048e+09   1.41000e+09   261654    0.03%
  79371 13525   1.41000e+09     5   1.41048e+09   1.41000e+09   261655    0.03%
  79372 13524        cutoff         1.41048e+09   1.41000e+09   261658    0.03%
  79373 13523    infeasible         1.41048e+09   1.41000e+09   261658    0.03%
  79374 13522    infeasible         1.41048e+09   1.41000e+09   261661    0.03%
  79375 13523   1.41000e+09     6   1.41048e+09   1.41000e+09   261664    0.03%
  79376 13524   1.41000e+09     6   1.41048e+09   1.41000e+09   261666    0.03%
  79377 13525   1.41000e+09     6   1.41048e+09   1.41000e+09   261669    0.03%
  79378 13526   1.41000e+09     6   1.41048e+09   1.41000e+09   261670    0.03%
 106566 16332        cutoff         1.41048e+09   1.41000e+09   352711    0.03%
Elapsed time = 14.90 sec. (12415.51 ticks, tree = 5.72 MB, solutions = 15)
*134206 21993      integral     0   1.41041e+09   1.41000e+09   446026    0.03%
 138771 22226   1.41000e+09     6   1.41041e+09   1.41000e+09   460446    0.03%
 138772 22227   1.41000e+09     6   1.41041e+09   1.41000e+09   460447    0.03%
 138773 22228   1.41000e+09     6   1.41041e+09   1.41000e+09   460448    0.03%
 138774 22229   1.41000e+09     6   1.41041e+09   1.41000e+09   460449    0.03%
 138775 22230   1.41000e+09     6   1.41041e+09   1.41000e+09   460452    0.03%
 138776 22231   1.41000e+09     7   1.41041e+09   1.41000e+09   460456    0.03%
 138777 22232   1.41000e+09     6   1.41041e+09   1.41000e+09   460457    0.03%
 138778 22233   1.41000e+09     8   1.41041e+09   1.41000e+09   460459    0.03%
 138779 22232   1.41012e+09    10   1.41041e+09   1.41000e+09   460461    0.03%
 138780 22231    infeasible         1.41041e+09   1.41000e+09   460466    0.03%
Elapsed time = 19.40 sec. (16231.01 ticks, tree = 8.03 MB, solutions = 16)
*149432 23205      integral     0   1.41035e+09   1.41000e+09   495865    0.02%
*171746 24840      integral     0   1.41007e+09   1.41000e+09   568454    0.01%

Cover cuts applied:  1

Root node processing (before b&c):
  Real time             =    0.01 sec. (7.02 ticks)
Sequential b&c:
  Real time             =   23.62 sec. (19802.08 ticks)
                          ------------
Total (root+branch&cut) =   23.63 sec. (19809.11 ticks)

Solution pool: 18 solutions saved.

MIP - Integer optimal, tolerance (0.0001/1e-06):  Objective =  1.4100729050e+09
Current MIP best bound =  1.4100007540e+09 (gap = 72151, 0.01%)
Solution time =   23.63 sec.  Iterations = 568454  Nodes = 171747 (24840)
Deterministic time = 19809.11 ticks  (838.30 ticks/sec)


Incumbent solution written to file '/tmp/tmpQGeE8g.cplex.sol'.
